184
130
101
118
114
78
201
93
246
110
86
109
99
122
145
79
159
99
87
246
128
96
116
117
147
92
122
189
145
101
157
121
93
76
110
75
133
182
82
138
103
142
136
137
89
120
68
186
144
134
131
135
160
130
109
115
168
137
104
78
99
122
140
99
169
151
123
75
104
116
111
122
162
93
112
145
136
96
95
145
143
214
0
106
106
148
149
102
107
100
111
95
77
130
89
139
111
239
177
109
